db/data/292712803231282005527073312989234693.z3.out
-------------------
2500.135578793
